TCS_Benchmarks/redos_fix/corpus1_output_distinct_1041_1040_10_0.txt
(.*)(.*)
(.*)([.]so[0-9.]+(.*[.]dylib))(.*)